p edge 122 3819
e 1 4
e 1 7
e 1 8
e 1 12
e 1 14
e 1 15
e 1 16
e 1 17
e 1 18
e 1 20
e 1 21
e 1 22
e 1 25
e 1 26
e 1 27
e 1 28
e 1 32
e 1 38
e 1 39
e 1 42
e 1 43
e 1 45
e 1 48
e 1 49
e 1 50
e 1 51
e 1 52
e 1 53
e 1 54
e 1 55
e 1 56
e 1 58
e 1 59
e 1 60
e 1 61
e 1 63
e 1 64
e 1 67
e 1 69
e 1 70
e 1 71
e 1 73
e 1 74
e 1 75
e 1 76
e 1 78
e 1 80
e 1 81
e 1 82
e 1 84
e 1 85
e 1 87
e 1 88
e 1 91
e 1 94
e 1 95
e 1 97
e 1 104
e 1 105
e 1 106
e 1 108
e 1 109
e 1 111
e 1 113
e 1 114
e 1 117
e 1 120
e 2 3
e 2 4
e 2 5
e 2 7
e 2 10
e 2 12
e 2 13
e 2 15
e 2 16
e 2 23
e 2 27
e 2 28
e 2 29
e 2 31
e 2 35
e 2 36
e 2 37
e 2 38
e 2 39
e 2 40
e 2 41
e 2 42
e 2 43
e 2 44
e 2 45
e 2 47
e 2 48
e 2 49
e 2 52
e 2 58
e 2 59
e 2 60
e 2 61
e 2 64
e 2 65
e 2 66
e 2 67
e 2 68
e 2 70
e 2 72
e 2 73
e 2 75
e 2 76
e 2 77
e 2 79
e 2 80
e 2 82
e 2 83
e 2 84
e 2 88
e 2 90
e 2 97
e 2 99
e 2 100
e 2 101
e 2 105
e 2 108
e 2 110
e 2 111
e 2 112
e 2 114
e 2 116
e 2 119
e 2 121
e 3 4
e 3 5
e 3 7
e 3 10
e 3 11
e 3 15
e 3 17
e 3 20
e 3 21
e 3 23
e 3 27
e 3 28
e 3 30
e 3 31
e 3 32
e 3 33
e 3 35
e 3 37
e 3 39
e 3 41
e 3 42
e 3 43
e 3 44
e 3 46
e 3 48
e 3 50
e 3 51
e 3 52
e 3 53
e 3 55
e 3 57
e 3 61
e 3 66
e 3 68
e 3 69
e 3 71
e 3 73
e 3 75
e 3 76
e 3 77
e 3 78
e 3 79
e 3 80
e 3 83
e 3 85
e 3 86
e 3 87
e 3 88
e 3 90
e 3 91
e 3 92
e 3 94
e 3 96
e 3 98
e 3 99
e 3 101
e 3 102
e 3 103
e 3 105
e 3 108
e 3 110
e 3 111
e 3 112
e 3 114
e 3 115
e 3 116
e 3 121
e 4 9
e 4 11
e 4 12
e 4 13
e 4 14
e 4 15
e 4 17
e 4 18
e 4 19
e 4 21
e 4 23
e 4 24
e 4 26
e 4 27
e 4 28
e 4 31
e 4 32
e 4 35
e 4 38
e 4 41
e 4 42
e 4 43
e 4 45
e 4 48
e 4 49
e 4 50
e 4 51
e 4 52
e 4 53
e 4 55
e 4 56
e 4 57
e 4 58
e 4 60
e 4 62
e 4 63
e 4 64
e 4 65
e 4 66
e 4 67
e 4 68
e 4 72
e 4 73
e 4 74
e 4 75
e 4 77
e 4 81
e 4 82
e 4 85
e 4 86
e 4 89
e 4 91
e 4 92
e 4 95
e 4 96
e 4 97
e 4 99
e 4 100
e 4 101
e 4 102
e 4 103
e 4 104
e 4 106
e 4 107
e 4 118
e 4 122
e 5 12
e 5 13
e 5 14
e 5 15
e 5 16
e 5 20
e 5 24
e 5 26
e 5 31
e 5 32
e 5 35
e 5 37
e 5 40
e 5 41
e 5 42
e 5 43
e 5 44
e 5 46
e 5 48
e 5 49
e 5 50
e 5 54
e 5 57
e 5 63
e 5 66
e 5 67
e 5 68
e 5 71
e 5 72
e 5 73
e 5 74
e 5 77
e 5 80
e 5 81
e 5 87
e 5 89
e 5 92
e 5 99
e 5 101
e 5 103
e 5 104
e 5 105
e 5 108
e 5 110
e 5 111
e 5 112
e 5 113
e 5 115
e 5 116
e 5 117
e 5 120
e 5 121
e 5 122
e 6 8
e 6 9
e 6 10
e 6 11
e 6 14
e 6 15
e 6 20
e 6 22
e 6 24
e 6 27
e 6 33
e 6 35
e 6 36
e 6 38
e 6 42
e 6 44
e 6 46
e 6 47
e 6 48
e 6 50
e 6 51
e 6 52
e 6 53
e 6 54
e 6 57
e 6 58
e 6 60
e 6 61
e 6 62
e 6 64
e 6 66
e 6 67
e 6 69
e 6 72
e 6 73
e 6 74
e 6 75
e 6 77
e 6 79
e 6 80
e 6 81
e 6 83
e 6 84
e 6 86
e 6 91
e 6 92
e 6 93
e 6 94
e 6 97
e 6 100
e 6 102
e 6 103
e 6 104
e 6 105
e 6 110
e 6 112
e 6 116
e 6 117
e 6 119
e 6 120
e 6 122
e 7 9
e 7 11
e 7 12
e 7 16
e 7 18
e 7 19
e 7 20
e 7 21
e 7 22
e 7 23
e 7 25
e 7 26
e 7 27
e 7 29
e 7 30
e 7 33
e 7 35
e 7 36
e 7 37
e 7 38
e 7 40
e 7 41
e 7 45
e 7 46
e 7 47
e 7 48
e 7 50
e 7 51
e 7 53
e 7 55
e 7 57
e 7 59
e 7 60
e 7 61
e 7 63
e 7 64
e 7 66
e 7 69
e 7 70
e 7 71
e 7 72
e 7 73
e 7 75
e 7 76
e 7 77
e 7 78
e 7 80
e 7 82
e 7 84
e 7 85
e 7 86
e 7 87
e 7 90
e 7 93
e 7 95
e 7 100
e 7 101
e 7 102
e 7 103
e 7 107
e 7 108
e 7 112
e 7 115
e 7 117
e 7 118
e 7 119
e 7 120
e 7 121
e 7 122
e 8 9
e 8 10
e 8 12
e 8 14
e 8 16
e 8 19
e 8 20
e 8 21
e 8 25
e 8 26
e 8 28
e 8 29
e 8 30
e 8 32
e 8 33
e 8 35
e 8 36
e 8 37
e 8 38
e 8 40
e 8 41
e 8 42
e 8 45
e 8 47
e 8 50
e 8 55
e 8 57
e 8 62
e 8 63
e 8 64
e 8 65
e 8 66
e 8 69
e 8 70
e 8 71
e 8 74
e 8 75
e 8 77
e 8 78
e 8 79
e 8 80
e 8 85
e 8 86
e 8 88
e 8 89
e 8 90
e 8 91
e 8 95
e 8 98
e 8 99
e 8 100
e 8 106
e 8 108
e 8 111
e 8 112
e 8 113
e 8 114
e 8 116
e 8 118
e 8 119
e 8 121
e 8 122
e 9 15
e 9 16
e 9 17
e 9 20
e 9 21
e 9 22
e 9 24
e 9 25
e 9 28
e 9 29
e 9 31
e 9 35
e 9 37
e 9 42
e 9 45
e 9 47
e 9 49
e 9 54
e 9 55
e 9 57
e 9 59
e 9 60
e 9 61
e 9 67
e 9 69
e 9 71
e 9 72
e 9 74
e 9 77
e 9 87
e 9 88
e 9 89
e 9 91
e 9 94
e 9 96
e 9 97
e 9 98
e 9 99
e 9 100
e 9 101
e 9 102
e 9 104
e 9 105
e 9 106
e 9 108
e 9 111
e 9 113
e 9 117
e 9 118
e 9 121
e 10 15
e 10 16
e 10 17
e 10 21
e 10 22
e 10 27
e 10 28
e 10 29
e 10 30
e 10 34
e 10 36
e 10 39
e 10 42
e 10 44
e 10 45
e 10 46
e 10 47
e 10 48
e 10 49
e 10 50
e 10 51
e 10 53
e 10 54
e 10 56
e 10 57
e 10 58
e 10 59
e 10 60
e 10 61
e 10 62
e 10 66
e 10 68
e 10 72
e 10 73
e 10 74
e 10 77
e 10 78
e 10 81
e 10 82
e 10 83
e 10 85
e 10 87
e 10 89
e 10 91
e 10 93
e 10 94
e 10 95
e 10 102
e 10 103
e 10 108
e 10 109
e 10 110
e 10 112
e 10 113
e 10 114
e 10 116
e 10 118
e 10 119
e 10 120
e 10 121
e 11 12
e 11 13
e 11 14
e 11 15
e 11 18
e 11 19
e 11 20
e 11 21
e 11 23
e 11 24
e 11 25
e 11 26
e 11 27
e 11 29
e 11 35
e 11 37
e 11 43
e 11 45
e 11 46
e 11 48
e 11 49
e 11 51
e 11 52
e 11 53
e 11 54
e 11 57
e 11 58
e 11 60
e 11 61
e 11 65
e 11 66
e 11 67
e 11 68
e 11 69
e 11 71
e 11 74
e 11 75
e 11 79
e 11 81
e 11 82
e 11 85
e 11 91
e 11 92
e 11 94
e 11 96
e 11 97
e 11 98
e 11 100
e 11 101
e 11 103
e 11 107
e 11 108
e 11 109
e 11 113
e 11 116
e 11 118
e 11 119
e 11 121
e 12 13
e 12 16
e 12 17
e 12 18
e 12 19
e 12 23
e 12 26
e 12 27
e 12 29
e 12 35
e 12 37
e 12 38
e 12 39
e 12 40
e 12 42
e 12 46
e 12 47
e 12 48
e 12 51
e 12 53
e 12 58
e 12 59
e 12 61
e 12 63
e 12 65
e 12 66
e 12 67
e 12 69
e 12 71
e 12 77
e 12 78
e 12 80
e 12 81
e 12 82
e 12 83
e 12 87
e 12 89
e 12 90
e 12 92
e 12 93
e 12 94
e 12 95
e 12 96
e 12 97
e 12 98
e 12 99
e 12 101
e 12 103
e 12 105
e 12 106
e 12 107
e 12 112
e 12 113
e 12 114
e 12 115
e 12 116
e 12 120
e 12 122
e 13 14
e 13 17
e 13 19
e 13 20
e 13 25
e 13 26
e 13 27
e 13 29
e 13 30
e 13 35
e 13 37
e 13 39
e 13 40
e 13 44
e 13 45
e 13 47
e 13 49
e 13 53
e 13 59
e 13 60
e 13 63
e 13 65
e 13 66
e 13 67
e 13 69
e 13 72
e 13 74
e 13 75
e 13 76
e 13 77
e 13 78
e 13 81
e 13 82
e 13 86
e 13 90
e 13 91
e 13 93
e 13 97
e 13 98
e 13 99
e 13 100
e 13 101
e 13 103
e 13 104
e 13 106
e 13 107
e 13 110
e 13 111
e 13 112
e 13 115
e 13 117
e 13 120
e 14 16
e 14 17
e 14 18
e 14 24
e 14 25
e 14 30
e 14 31
e 14 32
e 14 34
e 14 35
e 14 37
e 14 38
e 14 41
e 14 42
e 14 44
e 14 46
e 14 48
e 14 50
e 14 52
e 14 53
e 14 54
e 14 55
e 14 57
e 14 58
e 14 62
e 14 63
e 14 65
e 14 66
e 14 68
e 14 71
e 14 72
e 14 77
e 14 78
e 14 79
e 14 81
e 14 84
e 14 90
e 14 91
e 14 92
e 14 94
e 14 95
e 14 97
e 14 98
e 14 99
e 14 100
e 14 101
e 14 104
e 14 105
e 14 106
e 14 108
e 14 109
e 14 110
e 14 112
e 14 115
e 14 118
e 15 18
e 15 22
e 15 23
e 15 27
e 15 28
e 15 32
e 15 33
e 15 34
e 15 39
e 15 40
e 15 42
e 15 43
e 15 44
e 15 48
e 15 49
e 15 50
e 15 52
e 15 53
e 15 54
e 15 56
e 15 57
e 15 59
e 15 65
e 15 66
e 15 67
e 15 71
e 15 72
e 15 75
e 15 76
e 15 77
e 15 79
e 15 80
e 15 81
e 15 88
e 15 90
e 15 91
e 15 92
e 15 94
e 15 95
e 15 98
e 15 102
e 15 103
e 15 104
e 15 106
e 15 107
e 15 109
e 15 110
e 15 112
e 15 113
e 15 115
e 15 116
e 15 118
e 15 119
e 16 18
e 16 19
e 16 21
e 16 23
e 16 24
e 16 26
e 16 28
e 16 30
e 16 32
e 16 34
e 16 36
e 16 37
e 16 39
e 16 41
e 16 43
e 16 48
e 16 51
e 16 52
e 16 53
e 16 55
e 16 58
e 16 59
e 16 61
e 16 63
e 16 64
e 16 66
e 16 68
e 16 69
e 16 72
e 16 74
e 16 75
e 16 76
e 16 77
e 16 78
e 16 81
e 16 83
e 16 84
e 16 88
e 16 91
e 16 92
e 16 93
e 16 99
e 16 100
e 16 101
e 16 102
e 16 103
e 16 104
e 16 106
e 16 107
e 16 108
e 16 112
e 16 114
e 16 115
e 16 117
e 16 118
e 16 121
e 16 122
e 17 18
e 17 19
e 17 21
e 17 24
e 17 25
e 17 28
e 17 31
e 17 33
e 17 34
e 17 43
e 17 45
e 17 46
e 17 47
e 17 49
e 17 52
e 17 58
e 17 59
e 17 62
e 17 63
e 17 65
e 17 71
e 17 75
e 17 76
e 17 77
e 17 79
e 17 80
e 17 84
e 17 86
e 17 91
e 17 92
e 17 93
e 17 95
e 17 96
e 17 99
e 17 101
e 17 102
e 17 103
e 17 104
e 17 107
e 17 108
e 17 117
e 17 118
e 17 121
e 17 122
e 18 20
e 18 21
e 18 22
e 18 23
e 18 24
e 18 26
e 18 31
e 18 33
e 18 39
e 18 41
e 18 42
e 18 43
e 18 45
e 18 46
e 18 49
e 18 53
e 18 54
e 18 62
e 18 63
e 18 66
e 18 67
e 18 68
e 18 69
e 18 74
e 18 75
e 18 76
e 18 77
e 18 80
e 18 82
e 18 84
e 18 86
e 18 87
e 18 91
e 18 92
e 18 94
e 18 95
e 18 96
e 18 99
e 18 103
e 18 105
e 18 107
e 18 108
e 18 113
e 18 115
e 18 116
e 18 117
e 18 118
e 18 119
e 19 23
e 19 24
e 19 28
e 19 29
e 19 30
e 19 31
e 19 32
e 19 34
e 19 36
e 19 38
e 19 39
e 19 41
e 19 42
e 19 46
e 19 47
e 19 52
e 19 53
e 19 54
e 19 56
e 19 58
e 19 61
e 19 62
e 19 63
e 19 64
e 19 65
e 19 68
e 19 72
e 19 73
e 19 74
e 19 75
e 19 76
e 19 77
e 19 78
e 19 79
e 19 80
e 19 81
e 19 82
e 19 84
e 19 86
e 19 87
e 19 89
e 19 92
e 19 94
e 19 98
e 19 99
e 19 100
e 19 101
e 19 102
e 19 107
e 19 108
e 19 109
e 19 110
e 19 112
e 19 113
e 19 114
e 19 115
e 19 116
e 19 118
e 19 119
e 19 120
e 19 121
e 20 21
e 20 25
e 20 27
e 20 29
e 20 34
e 20 35
e 20 37
e 20 42
e 20 43
e 20 44
e 20 46
e 20 48
e 20 49
e 20 53
e 20 55
e 20 57
e 20 58
e 20 61
e 20 62
e 20 63
e 20 64
e 20 65
e 20 66
e 20 69
e 20 70
e 20 71
e 20 72
e 20 73
e 20 74
e 20 79
e 20 82
e 20 84
e 20 85
e 20 89
e 20 91
e 20 92
e 20 96
e 20 101
e 20 103
e 20 105
e 20 106
e 20 107
e 20 109
e 20 110
e 20 111
e 20 112
e 20 115
e 20 118
e 20 121
e 20 122
e 21 22
e 21 23
e 21 24
e 21 26
e 21 27
e 21 28
e 21 29
e 21 30
e 21 31
e 21 32
e 21 37
e 21 38
e 21 39
e 21 40
e 21 43
e 21 46
e 21 47
e 21 49
e 21 56
e 21 58
e 21 59
e 21 60
e 21 61
e 21 62
e 21 64
e 21 66
e 21 67
e 21 72
e 21 74
e 21 78
e 21 79
e 21 83
e 21 84
e 21 86
e 21 87
e 21 89
e 21 90
e 21 91
e 21 94
e 21 95
e 21 101
e 21 102
e 21 103
e 21 105
e 21 107
e 21 112
e 21 114
e 21 117
e 21 118
e 21 120
e 21 122
e 22 24
e 22 25
e 22 27
e 22 29
e 22 31
e 22 32
e 22 33
e 22 34
e 22 35
e 22 37
e 22 39
e 22 42
e 22 44
e 22 45
e 22 49
e 22 55
e 22 56
e 22 57
e 22 61
e 22 62
e 22 63
e 22 64
e 22 65
e 22 66
e 22 67
e 22 68
e 22 69
e 22 71
e 22 72
e 22 77
e 22 78
e 22 80
e 22 81
e 22 82
e 22 83
e 22 84
e 22 85
e 22 86
e 22 87
e 22 88
e 22 89
e 22 90
e 22 92
e 22 93
e 22 94
e 22 101
e 22 103
e 22 105
e 22 106
e 22 107
e 22 108
e 22 111
e 22 112
e 22 115
e 22 117
e 22 118
e 22 119
e 22 120
e 22 122
e 23 24
e 23 27
e 23 29
e 23 31
e 23 33
e 23 34
e 23 37
e 23 41
e 23 44
e 23 47
e 23 51
e 23 52
e 23 53
e 23 56
e 23 57
e 23 61
e 23 63
e 23 65
e 23 66
e 23 67
e 23 68
e 23 71
e 23 72
e 23 75
e 23 76
e 23 78
e 23 79
e 23 81
e 23 82
e 23 84
e 23 85
e 23 86
e 23 87
e 23 88
e 23 90
e 23 92
e 23 93
e 23 95
e 23 96
e 23 99
e 23 100
e 23 106
e 23 108
e 23 109
e 23 110
e 23 114
e 23 116
e 23 117
e 23 119
e 23 121
e 23 122
e 24 28
e 24 32
e 24 34
e 24 37
e 24 40
e 24 44
e 24 45
e 24 46
e 24 47
e 24 48
e 24 49
e 24 51
e 24 52
e 24 53
e 24 56
e 24 57
e 24 60
e 24 66
e 24 67
e 24 71
e 24 74
e 24 79
e 24 81
e 24 82
e 24 88
e 24 89
e 24 93
e 24 94
e 24 98
e 24 101
e 24 103
e 24 107
e 24 111
e 24 112
e 24 113
e 24 114
e 24 116
e 24 121
e 24 122
e 25 27
e 25 28
e 25 29
e 25 30
e 25 31
e 25 33
e 25 34
e 25 38
e 25 39
e 25 41
e 25 46
e 25 50
e 25 51
e 25 52
e 25 53
e 25 55
e 25 56
e 25 57
e 25 58
e 25 61
e 25 62
e 25 63
e 25 65
e 25 66
e 25 67
e 25 68
e 25 71
e 25 72
e 25 74
e 25 76
e 25 77
e 25 78
e 25 84
e 25 85
e 25 87
e 25 89
e 25 90
e 25 92
e 25 94
e 25 97
e 25 99
e 25 100
e 25 101
e 25 102
e 25 105
e 25 106
e 25 108
e 25 109
e 25 110
e 25 111
e 25 113
e 25 116
e 25 117
e 25 118
e 25 119
e 25 120
e 26 28
e 26 30
e 26 32
e 26 33
e 26 34
e 26 38
e 26 40
e 26 42
e 26 43
e 26 45
e 26 47
e 26 49
e 26 54
e 26 55
e 26 57
e 26 58
e 26 60
e 26 63
e 26 71
e 26 72
e 26 73
e 26 76
e 26 77
e 26 78
e 26 79
e 26 80
e 26 82
e 26 84
e 26 85
e 26 86
e 26 88
e 26 92
e 26 94
e 26 95
e 26 97
e 26 98
e 26 100
e 26 102
e 26 103
e 26 104
e 26 108
e 26 109
e 26 111
e 26 112
e 26 114
e 26 115
e 26 117
e 26 118
e 26 122
e 27 28
e 27 30
e 27 31
e 27 33
e 27 34
e 27 35
e 27 38
e 27 39
e 27 40
e 27 47
e 27 48
e 27 50
e 27 52
e 27 56
e 27 57
e 27 60
e 27 61
e 27 62
e 27 63
e 27 65
e 27 66
e 27 67
e 27 68
e 27 70
e 27 71
e 27 75
e 27 76
e 27 78
e 27 80
e 27 81
e 27 82
e 27 83
e 27 87
e 27 90
e 27 93
e 27 94
e 27 96
e 27 97
e 27 99
e 27 100
e 27 101
e 27 104
e 27 109
e 27 111
e 27 113
e 27 114
e 27 115
e 27 116
e 27 117
e 27 118
e 27 119
e 27 121
e 28 32
e 28 34
e 28 35
e 28 36
e 28 39
e 28 45
e 28 46
e 28 47
e 28 49
e 28 51
e 28 53
e 28 56
e 28 57
e 28 58
e 28 60
e 28 62
e 28 63
e 28 64
e 28 67
e 28 68
e 28 71
e 28 72
e 28 73
e 28 74
e 28 75
e 28 76
e 28 78
e 28 80
e 28 84
e 28 85
e 28 88
e 28 89
e 28 93
e 28 96
e 28 97
e 28 98
e 28 102
e 28 103
e 28 107
e 28 108
e 28 109
e 28 111
e 28 117
e 28 118
e 28 119
e 28 121
e 29 32
e 29 34
e 29 35
e 29 36
e 29 38
e 29 40
e 29 44
e 29 46
e 29 48
e 29 49
e 29 52
e 29 54
e 29 57
e 29 58
e 29 59
e 29 61
e 29 64
e 29 65
e 29 67
e 29 68
e 29 69
e 29 71
e 29 72
e 29 74
e 29 78
e 29 80
e 29 81
e 29 82
e 29 83
e 29 86
e 29 91
e 29 94
e 29 97
e 29 98
e 29 99
e 29 103
e 29 105
e 29 107
e 29 108
e 29 112
e 29 114
e 29 117
e 29 118
e 29 122
e 30 34
e 30 35
e 30 36
e 30 40
e 30 42
e 30 44
e 30 46
e 30 47
e 30 49
e 30 50
e 30 51
e 30 53
e 30 55
e 30 56
e 30 58
e 30 60
e 30 62
e 30 64
e 30 65
e 30 71
e 30 73
e 30 77
e 30 78
e 30 79
e 30 81
e 30 84
e 30 86
e 30 87
e 30 88
e 30 89
e 30 90
e 30 91
e 30 92
e 30 93
e 30 96
e 30 97
e 30 102
e 30 103
e 30 104
e 30 105
e 30 106
e 30 109
e 30 110
e 30 113
e 30 114
e 30 115
e 30 117
e 30 119
e 30 121
e 30 122
e 31 32
e 31 35
e 31 37
e 31 38
e 31 41
e 31 42
e 31 43
e 31 46
e 31 48
e 31 51
e 31 52
e 31 53
e 31 54
e 31 55
e 31 56
e 31 57
e 31 63
e 31 65
e 31 68
e 31 69
e 31 70
e 31 72
e 31 74
e 31 76
e 31 77
e 31 78
e 31 79
e 31 81
e 31 83
e 31 84
e 31 85
e 31 86
e 31 90
e 31 91
e 31 92
e 31 93
e 31 94
e 31 95
e 31 96
e 31 97
e 31 98
e 31 99
e 31 105
e 31 107
e 31 111
e 31 112
e 31 113
e 31 114
e 31 116
e 31 119
e 31 120
e 32 33
e 32 34
e 32 35
e 32 39
e 32 45
e 32 47
e 32 53
e 32 57
e 32 58
e 32 59
e 32 60
e 32 61
e 32 64
e 32 65
e 32 71
e 32 73
e 32 76
e 32 77
e 32 78
e 32 81
e 32 83
e 32 84
e 32 86
e 32 91
e 32 92
e 32 93
e 32 94
e 32 97
e 32 98
e 32 100
e 32 105
e 32 109
e 32 112
e 32 113
e 32 114
e 32 115
e 32 116
e 32 118
e 32 119
e 32 121
e 33 36
e 33 37
e 33 40
e 33 42
e 33 45
e 33 46
e 33 47
e 33 49
e 33 51
e 33 53
e 33 54
e 33 56
e 33 58
e 33 61
e 33 62
e 33 65
e 33 67
e 33 69
e 33 70
e 33 77
e 33 78
e 33 79
e 33 80
e 33 82
e 33 85
e 33 86
e 33 89
e 33 91
e 33 92
e 33 93
e 33 95
e 33 97
e 33 98
e 33 99
e 33 100
e 33 102
e 33 104
e 33 107
e 33 108
e 33 111
e 33 115
e 33 116
e 33 120
e 33 121
e 34 35
e 34 36
e 34 37
e 34 41
e 34 42
e 34 45
e 34 46
e 34 47
e 34 50
e 34 52
e 34 54
e 34 57
e 34 58
e 34 61
e 34 62
e 34 63
e 34 66
e 34 67
e 34 69
e 34 71
e 34 74
e 34 76
e 34 78
e 34 80
e 34 83
e 34 87
e 34 88
e 34 90
e 34 91
e 34 94
e 34 95
e 34 96
e 34 100
e 34 104
e 34 105
e 34 107
e 34 108
e 34 111
e 34 112
e 34 113
e 34 115
e 34 116
e 34 117
e 34 119
e 34 120
e 34 121
e 35 37
e 35 38
e 35 39
e 35 41
e 35 42
e 35 43
e 35 50
e 35 52
e 35 54
e 35 55
e 35 57
e 35 58
e 35 59
e 35 63
e 35 64
e 35 65
e 35 70
e 35 71
e 35 72
e 35 73
e 35 75
e 35 78
e 35 81
e 35 82
e 35 83
e 35 85
e 35 87
e 35 88
e 35 89
e 35 90
e 35 91
e 35 92
e 35 93
e 35 96
e 35 99
e 35 100
e 35 101
e 35 104
e 35 106
e 35 107
e 35 108
e 35 109
e 35 110
e 35 112
e 35 113
e 35 114
e 35 115
e 35 116
e 35 117
e 35 118
e 35 120
e 35 121
e 36 37
e 36 38
e 36 39
e 36 41
e 36 42
e 36 44
e 36 45
e 36 47
e 36 49
e 36 50
e 36 51
e 36 52
e 36 54
e 36 55
e 36 58
e 36 59
e 36 60
e 36 63
e 36 64
e 36 65
e 36 71
e 36 74
e 36 77
e 36 78
e 36 79
e 36 81
e 36 84
e 36 89
e 36 90
e 36 93
e 36 95
e 36 96
e 36 97
e 36 98
e 36 100
e 36 103
e 36 105
e 36 108
e 36 109
e 36 110
e 36 111
e 36 112
e 36 115
e 36 118
e 36 119
e 36 121
e 36 122
e 37 39
e 37 41
e 37 50
e 37 52
e 37 55
e 37 58
e 37 59
e 37 62
e 37 63
e 37 65
e 37 67
e 37 68
e 37 69
e 37 70
e 37 71
e 37 72
e 37 76
e 37 77
e 37 79
e 37 80
e 37 81
e 37 82
e 37 84
e 37 85
e 37 86
e 37 88
e 37 91
e 37 92
e 37 94
e 37 95
e 37 96
e 37 99
e 37 100
e 37 102
e 37 104
e 37 107
e 37 108
e 37 110
e 37 112
e 37 114
e 37 118
e 37 120
e 37 122
e 38 39
e 38 41
e 38 44
e 38 46
e 38 48
e 38 50
e 38 51
e 38 52
e 38 53
e 38 57
e 38 58
e 38 59
e 38 60
e 38 61
e 38 62
e 38 64
e 38 65
e 38 67
e 38 70
e 38 72
e 38 73
e 38 75
e 38 78
e 38 80
e 38 81
e 38 86
e 38 87
e 38 92
e 38 93
e 38 94
e 38 96
e 38 98
e 38 100
e 38 101
e 38 104
e 38 105
e 38 108
e 38 110
e 38 113
e 38 114
e 38 115
e 38 116
e 38 118
e 38 119
e 38 121
e 39 41
e 39 44
e 39 45
e 39 46
e 39 47
e 39 50
e 39 54
e 39 55
e 39 57
e 39 58
e 39 63
e 39 69
e 39 70
e 39 71
e 39 73
e 39 75
e 39 77
e 39 83
e 39 85
e 39 87
e 39 89
e 39 90
e 39 95
e 39 100
e 39 101
e 39 105
e 39 106
e 39 108
e 39 109
e 39 110
e 39 112
e 39 115
e 39 116
e 39 117
e 40 41
e 40 43
e 40 44
e 40 45
e 40 46
e 40 47
e 40 49
e 40 51
e 40 52
e 40 53
e 40 55
e 40 58
e 40 59
e 40 60
e 40 63
e 40 64
e 40 66
e 40 67
e 40 68
e 40 69
e 40 70
e 40 75
e 40 76
e 40 78
e 40 79
e 40 80
e 40 81
e 40 83
e 40 84
e 40 86
e 40 89
e 40 90
e 40 94
e 40 96
e 40 97
e 40 100
e 40 102
e 40 103
e 40 104
e 40 105
e 40 107
e 40 109
e 40 111
e 40 113
e 40 115
e 40 117
e 40 118
e 40 121
e 40 122
e 41 42
e 41 43
e 41 47
e 41 48
e 41 49
e 41 50
e 41 52
e 41 56
e 41 60
e 41 62
e 41 66
e 41 70
e 41 72
e 41 74
e 41 75
e 41 78
e 41 79
e 41 81
e 41 82
e 41 85
e 41 87
e 41 88
e 41 90
e 41 91
e 41 93
e 41 95
e 41 96
e 41 98
e 41 100
e 41 101
e 41 103
e 41 104
e 41 106
e 41 107
e 41 109
e 41 111
e 41 113
e 41 114
e 41 115
e 41 117
e 41 118
e 41 119
e 41 121
e 42 44
e 42 45
e 42 46
e 42 48
e 42 49
e 42 51
e 42 53
e 42 54
e 42 59
e 42 62
e 42 63
e 42 65
e 42 67
e 42 69
e 42 71
e 42 72
e 42 74
e 42 78
e 42 81
e 42 87
e 42 89
e 42 92
e 42 99
e 42 100
e 42 101
e 42 102
e 42 104
e 42 106
e 42 108
e 42 109
e 42 110
e 42 111
e 42 113
e 42 116
e 42 117
e 42 118
e 42 119
e 43 44
e 43 45
e 43 49
e 43 50
e 43 51
e 43 52
e 43 53
e 43 54
e 43 56
e 43 61
e 43 62
e 43 63
e 43 65
e 43 66
e 43 67
e 43 68
e 43 70
e 43 72
e 43 73
e 43 74
e 43 75
e 43 76
e 43 78
e 43 79
e 43 80
e 43 84
e 43 85
e 43 86
e 43 87
e 43 94
e 43 96
e 43 98
e 43 101
e 43 103
e 43 104
e 43 105
e 43 106
e 43 109
e 43 110
e 43 112
e 43 114
e 43 117
e 43 121
e 44 45
e 44 47
e 44 52
e 44 53
e 44 55
e 44 57
e 44 58
e 44 60
e 44 61
e 44 64
e 44 66
e 44 70
e 44 71
e 44 77
e 44 78
e 44 79
e 44 84
e 44 86
e 44 87
e 44 88
e 44 90
e 44 91
e 44 92
e 44 95
e 44 97
e 44 98
e 44 101
e 44 104
e 44 105
e 44 107
e 44 109
e 44 110
e 44 111
e 44 114
e 44 117
e 44 118
e 44 120
e 44 121
e 44 122
e 45 47
e 45 48
e 45 49
e 45 51
e 45 52
e 45 54
e 45 57
e 45 59
e 45 61
e 45 62
e 45 64
e 45 65
e 45 67
e 45 69
e 45 70
e 45 71
e 45 73
e 45 78
e 45 79
e 45 81
e 45 84
e 45 88
e 45 90
e 45 91
e 45 92
e 45 96
e 45 100
e 45 101
e 45 105
e 45 107
e 45 109
e 45 110
e 45 116
e 45 118
e 45 119
e 45 122
e 46 48
e 46 52
e 46 53
e 46 54
e 46 55
e 46 60
e 46 61
e 46 62
e 46 63
e 46 66
e 46 67
e 46 68
e 46 72
e 46 73
e 46 74
e 46 75
e 46 79
e 46 82
e 46 83
e 46 85
e 46 86
e 46 90
e 46 92
e 46 93
e 46 94
e 46 95
e 46 96
e 46 97
e 46 102
e 46 105
e 46 106
e 46 108
e 46 109
e 46 110
e 46 111
e 46 115
e 46 116
e 46 118
e 46 120
e 46 121
e 47 48
e 47 49
e 47 52
e 47 55
e 47 57
e 47 63
e 47 66
e 47 68
e 47 70
e 47 72
e 47 73
e 47 74
e 47 76
e 47 77
e 47 80
e 47 83
e 47 84
e 47 85
e 47 89
e 47 91
e 47 92
e 47 97
e 47 98
e 47 100
e 47 101
e 47 102
e 47 103
e 47 104
e 47 105
e 47 106
e 47 107
e 47 108
e 47 111
e 47 114
e 47 115
e 47 116
e 47 117
e 47 119
e 48 50
e 48 51
e 48 54
e 48 55
e 48 56
e 48 58
e 48 59
e 48 60
e 48 67
e 48 68
e 48 69
e 48 70
e 48 71
e 48 72
e 48 74
e 48 75
e 48 76
e 48 78
e 48 80
e 48 81
e 48 87
e 48 88
e 48 91
e 48 92
e 48 93
e 48 94
e 48 95
e 48 96
e 48 98
e 48 99
e 48 100
e 48 102
e 48 103
e 48 105
e 48 106
e 48 107
e 48 110
e 48 112
e 48 113
e 48 114
e 48 115
e 48 116
e 48 118
e 48 121
e 49 51
e 49 52
e 49 53
e 49 54
e 49 57
e 49 60
e 49 62
e 49 64
e 49 70
e 49 73
e 49 76
e 49 78
e 49 81
e 49 87
e 49 89
e 49 91
e 49 94
e 49 96
e 49 97
e 49 98
e 49 99
e 49 101
e 49 102
e 49 103
e 49 105
e 49 106
e 49 107
e 49 108
e 49 109
e 49 110
e 49 113
e 49 114
e 49 116
e 49 117
e 49 118
e 49 120
e 49 121
e 49 122
e 50 52
e 50 55
e 50 56
e 50 58
e 50 60
e 50 62
e 50 64
e 50 65
e 50 68
e 50 70
e 50 71
e 50 74
e 50 78
e 50 81
e 50 82
e 50 85
e 50 86
e 50 87
e 50 88
e 50 91
e 50 92
e 50 94
e 50 95
e 50 96
e 50 99
e 50 102
e 50 105
e 50 109
e 50 110
e 50 111
e 50 112
e 50 116
e 50 117
e 50 118
e 50 119
e 50 120
e 50 122
e 51 59
e 51 62
e 51 65
e 51 67
e 51 68
e 51 72
e 51 73
e 51 74
e 51 77
e 51 82
e 51 85
e 51 86
e 51 87
e 51 91
e 51 93
e 51 94
e 51 98
e 51 101
e 51 102
e 51 104
e 51 105
e 51 106
e 51 108
e 51 109
e 51 111
e 51 112
e 51 115
e 51 117
e 51 119
e 51 121
e 51 122
e 52 54
e 52 55
e 52 57
e 52 58
e 52 59
e 52 60
e 52 64
e 52 68
e 52 70
e 52 73
e 52 74
e 52 75
e 52 76
e 52 77
e 52 78
e 52 79
e 52 88
e 52 92
e 52 93
e 52 95
e 52 96
e 52 97
e 52 100
e 52 102
e 52 104
e 52 106
e 52 109
e 52 110
e 52 112
e 52 114
e 52 117
e 52 118
e 52 120
e 53 54
e 53 56
e 53 57
e 53 60
e 53 62
e 53 64
e 53 65
e 53 69
e 53 70
e 53 71
e 53 72
e 53 74
e 53 75
e 53 76
e 53 77
e 53 78
e 53 79
e 53 81
e 53 83
e 53 87
e 53 88
e 53 89
e 53 90
e 53 91
e 53 94
e 53 96
e 53 98
e 53 99
e 53 103
e 53 104
e 53 105
e 53 106
e 53 107
e 53 108
e 53 109
e 53 110
e 53 111
e 53 112
e 53 113
e 53 114
e 53 115
e 53 117
e 53 122
e 54 56
e 54 57
e 54 58
e 54 60
e 54 61
e 54 63
e 54 64
e 54 65
e 54 66
e 54 67
e 54 68
e 54 69
e 54 70
e 54 71
e 54 72
e 54 73
e 54 76
e 54 77
e 54 78
e 54 80
e 54 82
e 54 83
e 54 84
e 54 85
e 54 87
e 54 89
e 54 91
e 54 92
e 54 97
e 54 100
e 54 101
e 54 102
e 54 105
e 54 107
e 54 109
e 54 111
e 54 112
e 54 118
e 54 120
e 54 121
e 54 122
e 55 56
e 55 57
e 55 59
e 55 60
e 55 61
e 55 63
e 55 65
e 55 66
e 55 67
e 55 69
e 55 70
e 55 73
e 55 75
e 55 76
e 55 77
e 55 79
e 55 80
e 55 86
e 55 88
e 55 89
e 55 90
e 55 92
e 55 93
e 55 97
e 55 98
e 55 99
e 55 100
e 55 102
e 55 105
e 55 106
e 55 107
e 55 108
e 55 109
e 55 114
e 55 115
e 55 117
e 55 119
e 55 121
e 56 57
e 56 64
e 56 67
e 56 69
e 56 70
e 56 71
e 56 72
e 56 73
e 56 74
e 56 75
e 56 76
e 56 77
e 56 78
e 56 79
e 56 80
e 56 81
e 56 82
e 56 84
e 56 87
e 56 88
e 56 89
e 56 90
e 56 91
e 56 92
e 56 93
e 56 94
e 56 95
e 56 97
e 56 99
e 56 100
e 56 103
e 56 104
e 56 106
e 56 110
e 56 112
e 56 117
e 56 118
e 56 119
e 56 120
e 56 121
e 57 58
e 57 59
e 57 63
e 57 67
e 57 72
e 57 76
e 57 79
e 57 82
e 57 83
e 57 87
e 57 88
e 57 91
e 57 93
e 57 97
e 57 103
e 57 104
e 57 105
e 57 108
e 57 112
e 57 113
e 57 115
e 57 117
e 57 120
e 57 121
e 57 122
e 58 61
e 58 64
e 58 65
e 58 66
e 58 75
e 58 78
e 58 80
e 58 81
e 58 82
e 58 83
e 58 84
e 58 86
e 58 89
e 58 92
e 58 94
e 58 100
e 58 103
e 58 106
e 58 107
e 58 110
e 58 113
e 58 118
e 58 121
e 58 122
e 59 60
e 59 62
e 59 64
e 59 67
e 59 68
e 59 69
e 59 72
e 59 74
e 59 75
e 59 77
e 59 80
e 59 81
e 59 83
e 59 84
e 59 85
e 59 86
e 59 89
e 59 90
e 59 91
e 59 94
e 59 95
e 59 97
e 59 99
e 59 101
e 59 102
e 59 103
e 59 106
e 59 108
e 59 109
e 59 111
e 59 112
e 59 113
e 59 115
e 59 117
e 59 120
e 59 121
e 59 122
e 60 61
e 60 65
e 60 66
e 60 67
e 60 68
e 60 69
e 60 71
e 60 72
e 60 73
e 60 74
e 60 75
e 60 76
e 60 77
e 60 81
e 60 85
e 60 87
e 60 89
e 60 90
e 60 91
e 60 92
e 60 93
e 60 94
e 60 98
e 60 101
e 60 103
e 60 104
e 60 105
e 60 106
e 60 111
e 60 112
e 60 113
e 60 114
e 60 115
e 60 116
e 60 119
e 60 120
e 60 122
e 61 62
e 61 63
e 61 64
e 61 65
e 61 66
e 61 67
e 61 69
e 61 70
e 61 72
e 61 73
e 61 74
e 61 75
e 61 77
e 61 80
e 61 81
e 61 84
e 61 87
e 61 91
e 61 95
e 61 96
e 61 99
e 61 100
e 61 102
e 61 103
e 61 107
e 61 108
e 61 109
e 61 111
e 61 112
e 61 115
e 61 117
e 61 118
e 61 120
e 61 122
e 62 64
e 62 65
e 62 66
e 62 67
e 62 68
e 62 69
e 62 70
e 62 71
e 62 74
e 62 76
e 62 78
e 62 83
e 62 86
e 62 88
e 62 90
e 62 95
e 62 96
e 62 97
e 62 101
e 62 103
e 62 105
e 62 106
e 62 107
e 62 108
e 62 111
e 62 112
e 62 116
e 62 122
e 63 67
e 63 68
e 63 69
e 63 70
e 63 71
e 63 73
e 63 74
e 63 76
e 63 78
e 63 82
e 63 83
e 63 86
e 63 87
e 63 91
e 63 92
e 63 94
e 63 96
e 63 98
e 63 99
e 63 100
e 63 102
e 63 105
e 63 106
e 63 110
e 63 111
e 63 113
e 63 114
e 63 115
e 63 121
e 64 70
e 64 71
e 64 72
e 64 74
e 64 75
e 64 77
e 64 79
e 64 80
e 64 82
e 64 84
e 64 85
e 64 93
e 64 96
e 64 97
e 64 98
e 64 100
e 64 101
e 64 102
e 64 103
e 64 105
e 64 106
e 64 111
e 64 113
e 64 114
e 64 115
e 64 116
e 64 117
e 64 119
e 64 121
e 65 66
e 65 68
e 65 69
e 65 71
e 65 77
e 65 78
e 65 79
e 65 80
e 65 81
e 65 84
e 65 85
e 65 86
e 65 88
e 65 91
e 65 92
e 65 94
e 65 95
e 65 97
e 65 98
e 65 101
e 65 103
e 65 105
e 65 106
e 65 107
e 65 111
e 65 112
e 65 117
e 65 118
e 65 120
e 65 122
e 66 67
e 66 69
e 66 70
e 66 71
e 66 74
e 66 80
e 66 84
e 66 85
e 66 87
e 66 89
e 66 90
e 66 93
e 66 98
e 66 99
e 66 101
e 66 102
e 66 106
e 66 107
e 66 109
e 66 110
e 66 111
e 66 112
e 66 114
e 66 115
e 66 116
e 66 117
e 66 118
e 66 119
e 66 121
e 67 69
e 67 71
e 67 75
e 67 77
e 67 78
e 67 79
e 67 81
e 67 82
e 67 83
e 67 85
e 67 86
e 67 87
e 67 89
e 67 90
e 67 91
e 67 93
e 67 94
e 67 97
e 67 98
e 67 100
e 67 101
e 67 102
e 67 103
e 67 111
e 67 112
e 67 113
e 67 115
e 67 116
e 67 120
e 68 69
e 68 73
e 68 76
e 68 77
e 68 78
e 68 79
e 68 81
e 68 82
e 68 83
e 68 84
e 68 89
e 68 91
e 68 92
e 68 94
e 68 96
e 68 97
e 68 98
e 68 100
e 68 101
e 68 103
e 68 104
e 68 105
e 68 106
e 68 107
e 68 108
e 68 109
e 68 112
e 68 113
e 68 114
e 68 116
e 68 118
e 68 122
e 69 72
e 69 74
e 69 76
e 69 79
e 69 80
e 69 81
e 69 82
e 69 84
e 69 86
e 69 90
e 69 91
e 69 92
e 69 95
e 69 96
e 69 98
e 69 99
e 69 100
e 69 101
e 69 102
e 69 104
e 69 109
e 69 110
e 69 114
e 69 115
e 69 117
e 69 118
e 69 120
e 69 121
e 70 71
e 70 72
e 70 75
e 70 79
e 70 80
e 70 84
e 70 85
e 70 87
e 70 89
e 70 91
e 70 92
e 70 94
e 70 95
e 70 96
e 70 97
e 70 98
e 70 100
e 70 102
e 70 103
e 70 104
e 70 105
e 70 107
e 70 108
e 70 110
e 70 112
e 70 113
e 70 114
e 70 115
e 70 117
e 70 119
e 70 120
e 70 122
e 71 75
e 71 76
e 71 79
e 71 80
e 71 81
e 71 84
e 71 85
e 71 87
e 71 88
e 71 90
e 71 92
e 71 94
e 71 95
e 71 96
e 71 99
e 71 102
e 71 104
e 71 105
e 71 106
e 71 108
e 71 111
e 71 115
e 71 117
e 71 118
e 71 121
e 72 73
e 72 77
e 72 78
e 72 81
e 72 83
e 72 85
e 72 87
e 72 89
e 72 90
e 72 91
e 72 95
e 72 96
e 72 97
e 72 100
e 72 103
e 72 104
e 72 106
e 72 107
e 72 109
e 72 110
e 72 115
e 72 119
e 72 120
e 72 121
e 73 76
e 73 78
e 73 80
e 73 81
e 73 84
e 73 85
e 73 86
e 73 87
e 73 88
e 73 89
e 73 90
e 73 92
e 73 94
e 73 95
e 73 99
e 73 103
e 73 105
e 73 106
e 73 108
e 73 109
e 73 111
e 73 112
e 73 114
e 73 115
e 73 117
e 73 118
e 73 122
e 74 75
e 74 78
e 74 79
e 74 80
e 74 81
e 74 82
e 74 85
e 74 86
e 74 87
e 74 89
e 74 90
e 74 91
e 74 94
e 74 95
e 74 98
e 74 99
e 74 102
e 74 108
e 74 110
e 74 111
e 74 113
e 74 114
e 74 115
e 74 117
e 74 118
e 74 121
e 75 76
e 75 78
e 75 79
e 75 80
e 75 83
e 75 84
e 75 86
e 75 87
e 75 88
e 75 89
e 75 91
e 75 92
e 75 94
e 75 95
e 75 97
e 75 100
e 75 103
e 75 109
e 75 111
e 75 112
e 75 113
e 75 114
e 75 115
e 75 116
e 75 117
e 75 120
e 75 121
e 75 122
e 76 78
e 76 79
e 76 81
e 76 82
e 76 85
e 76 87
e 76 88
e 76 94
e 76 95
e 76 97
e 76 100
e 76 101
e 76 102
e 76 105
e 76 106
e 76 107
e 76 111
e 76 117
e 76 118
e 76 120
e 76 122
e 77 79
e 77 85
e 77 87
e 77 89
e 77 91
e 77 93
e 77 94
e 77 96
e 77 99
e 77 100
e 77 101
e 77 104
e 77 107
e 77 111
e 77 116
e 77 117
e 77 119
e 77 120
e 77 122
e 78 80
e 78 81
e 78 83
e 78 85
e 78 88
e 78 93
e 78 95
e 78 96
e 78 103
e 78 104
e 78 105
e 78 106
e 78 108
e 78 117
e 78 118
e 78 120
e 79 83
e 79 84
e 79 86
e 79 87
e 79 89
e 79 91
e 79 92
e 79 94
e 79 99
e 79 100
e 79 101
e 79 102
e 79 103
e 79 104
e 79 106
e 79 108
e 79 110
e 79 112
e 79 113
e 79 114
e 79 115
e 79 118
e 79 120
e 79 121
e 80 83
e 80 85
e 80 87
e 80 88
e 80 89
e 80 91
e 80 96
e 80 101
e 80 102
e 80 103
e 80 104
e 80 105
e 80 107
e 80 108
e 80 109
e 80 110
e 80 114
e 80 117
e 80 118
e 81 83
e 81 84
e 81 87
e 81 88
e 81 90
e 81 92
e 81 93
e 81 99
e 81 100
e 81 103
e 81 105
e 81 107
e 81 108
e 81 109
e 81 111
e 81 112
e 81 114
e 81 115
e 81 120
e 81 121
e 81 122
e 82 83
e 82 85
e 82 88
e 82 89
e 82 91
e 82 94
e 82 95
e 82 96
e 82 97
e 82 99
e 82 100
e 82 101
e 82 104
e 82 109
e 82 111
e 82 112
e 82 119
e 82 121
e 82 122
e 83 84
e 83 91
e 83 95
e 83 96
e 83 97
e 83 98
e 83 99
e 83 100
e 83 102
e 83 104
e 83 106
e 83 110
e 83 111
e 83 113
e 83 114
e 83 117
e 83 118
e 83 119
e 83 122
e 84 85
e 84 87
e 84 90
e 84 91
e 84 92
e 84 93
e 84 94
e 84 97
e 84 98
e 84 101
e 84 102
e 84 104
e 84 105
e 84 107
e 84 108
e 84 111
e 84 112
e 84 114
e 84 117
e 84 120
e 84 121
e 85 87
e 85 89
e 85 90
e 85 92
e 85 94
e 85 96
e 85 97
e 85 102
e 85 105
e 85 106
e 85 107
e 85 108
e 85 110
e 85 111
e 85 112
e 85 115
e 85 116
e 85 118
e 85 119
e 85 120
e 85 122
e 86 87
e 86 90
e 86 93
e 86 96
e 86 97
e 86 99
e 86 100
e 86 102
e 86 103
e 86 104
e 86 106
e 86 110
e 86 114
e 86 116
e 86 118
e 86 119
e 86 121
e 86 122
e 87 89
e 87 93
e 87 95
e 87 100
e 87 102
e 87 103
e 87 104
e 87 106
e 87 107
e 87 108
e 87 109
e 87 110
e 87 111
e 87 112
e 87 116
e 87 118
e 87 119
e 87 121
e 87 122
e 88 90
e 88 91
e 88 92
e 88 97
e 88 98
e 88 100
e 88 101
e 88 102
e 88 103
e 88 104
e 88 106
e 88 107
e 88 108
e 88 110
e 88 111
e 88 113
e 88 114
e 88 116
e 88 117
e 88 118
e 88 121
e 89 90
e 89 93
e 89 94
e 89 95
e 89 97
e 89 101
e 89 103
e 89 105
e 89 110
e 89 111
e 89 112
e 89 113
e 89 115
e 89 116
e 89 121
e 89 122
e 90 91
e 90 92
e 90 96
e 90 98
e 90 99
e 90 100
e 90 101
e 90 103
e 90 104
e 90 108
e 90 109
e 90 111
e 90 114
e 90 115
e 90 119
e 90 120
e 90 121
e 90 122
e 91 92
e 91 93
e 91 94
e 91 95
e 91 96
e 91 97
e 91 98
e 91 99
e 91 100
e 91 101
e 91 105
e 91 107
e 91 108
e 91 109
e 91 110
e 91 113
e 91 114
e 91 116
e 91 118
e 92 94
e 92 98
e 92 101
e 92 102
e 92 105
e 92 106
e 92 108
e 92 111
e 92 112
e 92 113
e 92 114
e 92 115
e 92 116
e 92 117
e 92 120
e 92 122
e 93 94
e 93 98
e 93 102
e 93 104
e 93 105
e 93 108
e 93 111
e 93 112
e 93 117
e 93 119
e 94 98
e 94 99
e 94 100
e 94 101
e 94 102
e 94 106
e 94 108
e 94 109
e 94 114
e 94 117
e 94 118
e 94 120
e 95 98
e 95 100
e 95 102
e 95 105
e 95 106
e 95 107
e 95 108
e 95 109
e 95 111
e 95 113
e 95 114
e 95 116
e 95 117
e 95 118
e 95 121
e 95 122
e 96 98
e 96 100
e 96 102
e 96 103
e 96 105
e 96 106
e 96 107
e 96 108
e 96 110
e 96 112
e 96 113
e 96 114
e 96 115
e 96 117
e 96 119
e 96 121
e 96 122
e 97 98
e 97 104
e 97 106
e 97 115
e 97 116
e 97 117
e 97 118
e 97 119
e 97 120
e 97 122
e 98 100
e 98 102
e 98 104
e 98 106
e 98 108
e 98 110
e 98 111
e 98 112
e 98 114
e 98 116
e 98 119
e 98 121
e 99 100
e 99 101
e 99 102
e 99 105
e 99 109
e 99 110
e 99 112
e 99 114
e 99 115
e 99 116
e 99 117
e 99 118
e 99 119
e 99 121
e 100 101
e 100 102
e 100 104
e 100 110
e 100 112
e 100 115
e 100 116
e 100 119
e 100 120
e 100 121
e 101 106
e 101 107
e 101 108
e 101 109
e 101 110
e 101 112
e 102 109
e 102 110
e 102 111
e 102 112
e 102 113
e 102 117
e 102 121
e 102 122
e 103 107
e 103 108
e 103 110
e 103 111
e 103 113
e 103 117
e 103 119
e 103 120
e 103 121
e 103 122
e 104 106
e 104 107
e 104 109
e 104 110
e 104 115
e 104 116
e 104 118
e 104 119
e 104 120
e 104 122
e 105 106
e 105 107
e 105 108
e 105 109
e 105 110
e 105 115
e 105 118
e 105 119
e 105 121
e 105 122
e 106 107
e 106 109
e 106 110
e 106 111
e 106 112
e 106 114
e 106 118
e 106 119
e 106 120
e 106 122
e 107 109
e 107 111
e 107 112
e 107 114
e 107 115
e 107 116
e 107 117
e 107 119
e 107 120
e 107 121
e 107 122
e 108 110
e 108 113
e 108 114
e 108 115
e 108 116
e 108 117
e 108 118
e 108 121
e 109 111
e 109 113
e 109 115
e 109 118
e 109 120
e 109 121
e 110 114
e 110 117
e 110 120
e 110 121
e 111 112
e 111 113
e 111 115
e 111 118
e 111 119
e 111 120
e 111 121
e 112 113
e 112 119
e 112 120
e 112 121
e 112 122
e 113 116
e 113 119
e 113 121
e 113 122
e 114 116
e 114 118
e 115 116
e 115 119
e 116 119
e 116 120
e 116 121
e 116 122
e 117 120
e 117 121
e 118 119
e 118 120
e 119 122
e 120 122
e 121 122
